
Gurobi 11.0.3 (linux64) logging started Wed Nov  6 12:01:27 2024

Set parameter Username
Set parameter LogFile to value "kneipe.log"

Gurobi 11.0.3 (linux64) logging started Wed Nov  6 12:59:26 2024

Set parameter Username
Set parameter LogFile to value "kneipe.log"

Gurobi 11.0.3 (linux64) logging started Wed Nov  6 13:09:30 2024

Set parameter Username
Set parameter LogFile to value "kneipe.log"

Gurobi 11.0.3 (linux64) logging started Wed Nov  6 13:09:44 2024

Set parameter Username
Set parameter LogFile to value "kneipe.log"

Gurobi 11.0.3 (linux64) logging started Wed Nov  6 13:10:08 2024

Set parameter Username
Set parameter LogFile to value "kneipe.log"

Gurobi 11.0.3 (linux64) logging started Wed Nov  6 13:10:30 2024

Set parameter Username
Set parameter LogFile to value "kneipe.log"

Gurobi 11.0.3 (linux64) logging started Wed Nov  6 13:11:28 2024

Set parameter Username
Set parameter LogFile to value "kneipe.log"

Gurobi 11.0.3 (linux64) logging started Wed Nov  6 13:17:58 2024

Set parameter Username
Set parameter LogFile to value "kneipe.log"

Gurobi 11.0.3 (linux64) logging started Wed Nov  6 13:26:12 2024

Set parameter Username
Set parameter LogFile to value "kneipe.log"

Gurobi 11.0.3 (linux64) logging started Wed Nov  6 13:40:31 2024

Set parameter Username
Set parameter LogFile to value "kneipe.log"

Gurobi 11.0.3 (linux64) logging started Wed Nov  6 13:40:50 2024

Set parameter Username
Set parameter LogFile to value "kneipe.log"

Gurobi 11.0.3 (linux64) logging started Wed Nov  6 13:43:51 2024

Set parameter Username
Set parameter LogFile to value "kneipe.log"
